c Reduced graph for GEOM30 generated by Cyril Grelier
p edge 16 24
e 1 5
e 1 7
e 1 9
e 1 14
e 3 10
e 4 8
e 4 12
e 4 13
e 4 15
e 4 16
e 5 14
e 6 11
e 7 9
e 8 12
e 8 13
e 8 15
e 8 16
e 9 14
e 12 13
e 12 15
e 12 16
e 13 15
e 13 16
e 15 16
